8 6 94
8 8 1 8 2 7 1 7 2 4 1 8 3 1 1 7 3 4 15 15 26 26 36 36 46 48 65 65 74 76 82 82 93 
3 5 1 5 2 1 2 52 62 62 82 88 93 
7 6 1 6 2 2 1 6 3 2 2 3 1 3 2 10 22 22 41 41 53 53 60 60 70 76 86 86 94 
1 4 2 86 93 
9 8 1 7 1 7 1 4 1 4 1 3 1 3 1 1 2 1 2 0 4 4 22 22 26 26 44 44 48 48 66 66 76 76 84 84 88 
8 6 1 2 1 2 1 5 1 5 1 1 1 1 1 4 2 0 10 10 22 22 32 32 44 44 52 52 72 72 76 76 86 
